n_res = 4;
rc = [ 12, 15, 14, 14 ];
n_tasks = 30;
d = [ 10, 3, 10, 4, 10, 10, 3, 3, 8, 8, 7, 1, 10, 7, 3, 10, 4, 4, 10, 7, 10, 10, 4, 2, 1, 7, 2, 2, 10, 5 ];
rr = [| 0, 0, 0, 0, 0, 0, 0, 0, 0, 0, 9, 0, 0, 0, 10, 3, 3, 0, 0, 0, 0, 8, 0, 0, 0, 6, 0, 0, 0, 0
      | 10, 0, 0, 0, 9, 0, 0, 0, 4, 0, 0, 0, 0, 0, 0, 0, 0, 10, 0, 0, 0, 0, 0, 0, 0, 0, 3, 0, 0, 0
      | 0, 6, 0, 0, 0, 4, 0, 9, 0, 6, 0, 0, 0, 0, 0, 0, 0, 0, 6, 0, 0, 0, 6, 2, 10, 0, 0, 9, 9, 0
      | 0, 0, 4, 8, 0, 0, 8, 0, 0, 0, 0, 4, 4, 8, 0, 0, 0, 0, 0, 7, 1, 0, 0, 0, 0, 0, 0, 0, 0, 10 |];
suc = [ { 7, 23, 27 },
       { 5, 12, 14 },
       { 4, 6, 7 },
       { 8, 12, 13 },
       { 15, 18, 21 },
       { 9, 10, 11 },
       { 12, 17, 25 },
       { 15, 17, 27 },
       { 14, 21 },
       { 16, 21 },
       { 16, 17, 24 },
       { 15, 30 },
       { 19, 24, 26 },
       { 16, 18, 22 },
       { 20 },
       { 19, 23, 30 },
       { 20, 22, 30 },
       { 19, 20, 23 },
       { 27 },
       { 26 },
       { 22, 24, 26 },
       { 28, 29 },
       { 25, 28 },
       { 25 },
       { 29 },
       { 29 },
       { 28 },
       {  },
       {  },
       {  } ];
